NAME : ch130.best.tour
TYPE : TOUR
DIMENSION : 130
TOUR_SECTION
1
16
45
5
11
76
109
61
129
124
64
69
86
88
26
7
97
70
107
127
104
43
63
68
48
25
98
110
89
94
113
32
36
84
119
111
123
101
82
57
9
52
56
65
103
77
81
87
12
92
73
75
74
99
91
72
49
58
53
120
60
51
42
44
4
106
38
79
95
116
24
29
15
100
19
27
31
34
17
54
35
118
80
2
50
130
71
39
117
83
3
114
126
108
8
18
46
20
93
21
33
22
37
40
47
23
122
55
6
102
10
14
96
67
13
78
121
30
59
90
125
85
66
28
115
62
112
105
128
41
EOF